column=9;
row=9;
left=[3, 0, 5, 1, 3, 0, 0, 0, 4];
right=[0, 4, 0, 0, 1, 2, 3, 2, 2];
top=[3, 0, 4, 1, 0, 0, 2, 0, 0];
bottom=[0, 0, 2, 4, 0, 4, 0, 0, 4];
Board=[|3,0,4,9,5,0,7,8,1|8,0,0,4,0,7,5,6,2|2,5,0,0,1,8,9,0,0|9,4,0,7,2,1,3,5,6|0,0,0,8,4,5,1,0,0|0,1,2,3,6,0,4,7,8|0,2,9,1,0,0,8,3,0|0,8,3,5,9,4,0,0,7|0,7,5,0,8,3,6,9,4|]